52	0

0	1	2
5	1	3
1	1	4
9	1	5
4	1	6
10	1	7
7	1	8
8	1	9
10	1	10
7	1	11
6	1	12
3	1	13
2	1	14
2	1	15
5	1	16
3	1	17
4	1	18
10	1	19
9	1	20
7	1	21
8	1	22
10	1	23
5	1	24
4	1	25
9	1	26
2	1	27
4	1	28
9	1	29
9	1	30
1	1	31
3	1	32
10	1	33
2	1	34
9	1	35
7	1	36
6	1	37
4	1	38
7	1	39
3	1	40
6	1	41
3	1	42
5	1	43
9	1	44
2	1	45
9	1	46
9	1	47
7	1	48
6	1	49
10	1	50
7	1	51
6	1	52
0	0
